p tw 86 194
0 1
0 22
0 44
1 49
1 50
2 3
2 4
2 5
2 28
2 29
2 30
2 31
3 4
3 5
3 37
3 45
4 5
4 48
4 80
5 33
5 58
6 7
6 8
6 61
6 76
6 77
7 8
7 42
8 44
8 81
9 10
9 11
9 12
9 46
10 11
10 12
10 47
11 12
11 16
11 21
11 43
12 20
12 59
13 14
13 63
14 71
15 16
15 17
15 18
15 36
15 85
16 17
16 18
16 21
16 43
17 18
17 32
17 52
18 19
18 81
18 84
19 20
19 21
19 22
19 81
19 84
20 21
20 22
20 59
21 22
21 43
22 44
23 24
23 25
23 49
23 54
23 55
24 25
24 59
24 72
25 53
26 27
26 30
26 58
26 79
26 80
27 83
28 29
28 30
28 31
28 36
28 37
29 30
29 31
29 48
30 31
30 58
30 79
30 80
31 45
32 33
32 52
33 58
34 35
34 65
34 73
34 74
35 56
35 57
36 37
36 85
37 45
38 39
38 67
38 76
39 60
40 41
40 66
40 77
41 42
41 61
41 62
42 61
42 62
43 51
43 52
44 81
46 47
48 80
49 50
49 54
49 55
50 60
50 67
50 68
50 69
51 52
51 64
51 70
53 54
53 69
53 72
53 75
54 55
54 69
54 72
54 75
55 68
55 78
56 57
56 73
57 70
57 74
57 82
58 79
58 80
59 72
60 67
60 68
60 69
61 62
61 76
61 77
62 66
63 71
63 84
63 85
64 65
64 70
65 73
65 74
66 77
67 68
67 69
67 76
68 69
68 78
69 72
69 75
70 74
70 82
71 84
71 85
72 75
73 74
74 82
75 78
76 77
79 80
79 82
79 83
81 84
82 83
84 85
